; benchmark generated from python API
(set-info :status unknown)
(declare-fun x_months () Int)
(declare-fun x_beta () Int)
(assert
 (<= (- 1200) x_months))
(assert
 (>= 1199 x_months))
(assert
 (let ((?x1467 (mod x_months 48)))
 (let ((?x211 ((as const (Array Int Int)) 0)))
 (let ((?x213 (store ?x211 0 31)))
 (let ((?x216 (store ?x213 1 30)))
 (let ((?x218 (store ?x216 2 31)))
 (let ((?x220 (store ?x218 3 30)))
 (let ((?x222 (store ?x220 4 31)))
 (let ((?x224 (store ?x222 5 31)))
 (let ((?x226 (store ?x224 6 30)))
 (let ((?x228 (store ?x226 7 31)))
 (let ((?x230 (store ?x228 8 30)))
 (let ((?x232 (store ?x230 9 31)))
 (let ((?x234 (store ?x232 10 31)))
 (let ((?x237 (store ?x234 11 28)))
 (let ((?x239 (store ?x237 12 31)))
 (let ((?x241 (store ?x239 13 30)))
 (let ((?x243 (store ?x241 14 31)))
 (let ((?x245 (store ?x243 15 30)))
 (let ((?x247 (store ?x245 16 31)))
 (let ((?x249 (store ?x247 17 31)))
 (let ((?x251 (store ?x249 18 30)))
 (let ((?x253 (store ?x251 19 31)))
 (let ((?x255 (store ?x253 20 30)))
 (let ((?x257 (store ?x255 21 31)))
 (let ((?x259 (store ?x257 22 31)))
 (let ((?x261 (store ?x259 23 28)))
 (let ((?x263 (store ?x261 24 31)))
 (let ((?x265 (store ?x263 25 30)))
 (let ((?x267 (store ?x265 26 31)))
 (let ((?x269 (store ?x267 27 30)))
 (let ((?x270 (store ?x269 28 31)))
 (let ((?x272 (store ?x270 29 31)))
 (let ((?x273 (store ?x272 30 30)))
 (let ((?x274 (store ?x273 31 31)))
 (let ((?x276 (store ?x274 32 30)))
 (let ((?x278 (store ?x276 33 31)))
 (let ((?x280 (store ?x278 34 31)))
 (let ((?x282 (store ?x280 35 28)))
 (let ((?x284 (store ?x282 36 31)))
 (let ((?x286 (store ?x284 37 30)))
 (let ((?x288 (store ?x286 38 31)))
 (let ((?x290 (store ?x288 39 30)))
 (let ((?x292 (store ?x290 40 31)))
 (let ((?x294 (store ?x292 41 31)))
 (let ((?x296 (store ?x294 42 30)))
 (let ((?x298 (store ?x296 43 31)))
 (let ((?x300 (store ?x298 44 30)))
 (let ((?x302 (store ?x300 45 31)))
 (let ((?x304 (store ?x302 46 31)))
 (let ((?x306 (store ?x304 47 29)))
 (let ((?x2420 (select ?x306 ?x1467)))
 (let ((?x5488 (ite (or (= 22802 (+ x_months 24003)) (= 25202 (+ x_months 24003))) 28 ?x2420)))
 (let (($x4593 (<= 0 x_beta)))
 (and $x4593 (< x_beta ?x5488))))))))))))))))))))))))))))))))))))))))))))))))))))))))
(assert
 (let (($x5456 (and (= x_months (- (+ (* 2020 12) 2) 24003)) (<= 27 x_beta))))
 (or (> x_months (- (+ (* 2020 12) 2) 24003)) $x5456)))
(assert
 (let (($x3204 (and (= x_months (- (+ (* 2020 12) 3) 24003)) (>= 0 x_beta))))
 (or (< x_months (- (+ (* 2020 12) 3) 24003)) $x3204)))
(assert
 (let ((?x3143 (+ x_months 0)))
(let ((?x2866 (mod ?x3143 48)))
(let ((?x5243 (ite (> 22803 (+ ?x3143 24003)) 1 (ite (<= 25203 (+ ?x3143 24003)) (- 1) 0))))
(let ((?x211 ((as const (Array Int Int)) 0)))
(let ((?x213 (store ?x211 0 31)))
(let ((?x216 (store ?x213 1 30)))
(let ((?x218 (store ?x216 2 31)))
(let ((?x220 (store ?x218 3 30)))
(let ((?x222 (store ?x220 4 31)))
(let ((?x224 (store ?x222 5 31)))
(let ((?x226 (store ?x224 6 30)))
(let ((?x228 (store ?x226 7 31)))
(let ((?x230 (store ?x228 8 30)))
(let ((?x232 (store ?x230 9 31)))
(let ((?x234 (store ?x232 10 31)))
(let ((?x237 (store ?x234 11 28)))
(let ((?x239 (store ?x237 12 31)))
(let ((?x241 (store ?x239 13 30)))
(let ((?x243 (store ?x241 14 31)))
(let ((?x245 (store ?x243 15 30)))
(let ((?x247 (store ?x245 16 31)))
(let ((?x249 (store ?x247 17 31)))
(let ((?x251 (store ?x249 18 30)))
(let ((?x253 (store ?x251 19 31)))
(let ((?x255 (store ?x253 20 30)))
(let ((?x257 (store ?x255 21 31)))
(let ((?x259 (store ?x257 22 31)))
(let ((?x261 (store ?x259 23 28)))
(let ((?x263 (store ?x261 24 31)))
(let ((?x265 (store ?x263 25 30)))
(let ((?x267 (store ?x265 26 31)))
(let ((?x269 (store ?x267 27 30)))
(let ((?x270 (store ?x269 28 31)))
(let ((?x272 (store ?x270 29 31)))
(let ((?x273 (store ?x272 30 30)))
(let ((?x274 (store ?x273 31 31)))
(let ((?x276 (store ?x274 32 30)))
(let ((?x278 (store ?x276 33 31)))
(let ((?x280 (store ?x278 34 31)))
(let ((?x282 (store ?x280 35 28)))
(let ((?x284 (store ?x282 36 31)))
(let ((?x286 (store ?x284 37 30)))
(let ((?x288 (store ?x286 38 31)))
(let ((?x290 (store ?x288 39 30)))
(let ((?x292 (store ?x290 40 31)))
(let ((?x294 (store ?x292 41 31)))
(let ((?x296 (store ?x294 42 30)))
(let ((?x298 (store ?x296 43 31)))
(let ((?x300 (store ?x298 44 30)))
(let ((?x302 (store ?x300 45 31)))
(let ((?x304 (store ?x302 46 31)))
(let ((?x306 (store ?x304 47 29)))
(let ((?x1936 (ite (or (= 22802 (+ ?x3143 24003)) (= 25202 (+ ?x3143 24003))) 28 (select ?x306 ?x2866))))
(let ((?x2003 (- ?x1936 1)))
(let ((?x312 (store (store (store (store ?x211 0 0) 1 31) 2 61) 3 92)))
(let ((?x320 (store (store (store (store ?x312 4 122) 5 153) 6 184) 7 214)))
(let ((?x328 (store (store (store (store ?x320 8 245) 9 275) 10 306) 11 337)))
(let ((?x336 (store (store (store (store ?x328 12 365) 13 396) 14 426) 15 457)))
(let ((?x344 (store (store (store (store ?x336 16 487) 17 518) 18 549) 19 579)))
(let ((?x352 (store (store (store (store ?x344 20 610) 21 640) 22 671) 23 702)))
(let ((?x360 (store (store (store (store ?x352 24 730) 25 761) 26 791) 27 822)))
(let ((?x368 (store (store (store (store ?x360 28 852) 29 883) 30 914) 31 944)))
(let ((?x376 (store (store (store (store ?x368 32 975) 33 1005) 34 1036) 35 1067)))
(let ((?x384 (store (store (store (store ?x376 36 1095) 37 1126) 38 1156) 39 1187)))
(let ((?x392 (store (store (store (store ?x384 40 1217) 41 1248) 42 1279) 43 1309)))
(let ((?x400 (store (store (store (store ?x392 44 1340) 45 1370) 46 1401) 47 1432)))
(let ((?x5714 (+ (select ?x400 ?x2866) (ite (> 0 x_beta) 0 (ite (> x_beta ?x2003) ?x2003 x_beta)))))
(let ((?x4212 (+ (+ ?x5714 ?x5243) 1)))
(let ((?x4933 (+ ?x3143 (* (div ?x4212 1461) 48))))
(let ((?x2621 (+ (+ ?x4933 (- 1 ?x2866)) 24003)))
(let ((?x1607 (+ (select ?x400 1) (ite (> 22803 ?x2621) 1 (ite (<= 25203 ?x2621) (- 1) 0)))))
(let ((?x5522 (mod ?x4212 1461)))
(let ((?x1573 (ite (> 22803 (+ (+ ?x4933 (- 2 ?x2866)) 24003)) 1 (ite (<= 25203 (+ (+ ?x4933 (- 2 ?x2866)) 24003)) (- 1) 0))))
(let ((?x2373 (ite (>= ?x5522 (+ (select ?x400 2) ?x1573)) 2 (ite (>= ?x5522 ?x1607) 1 0))))
(let ((?x2774 (ite (> 22803 (+ (+ ?x4933 (- 3 ?x2866)) 24003)) 1 (ite (<= 25203 (+ (+ ?x4933 (- 3 ?x2866)) 24003)) (- 1) 0))))
(let ((?x5053 (ite (> 22803 (+ (+ ?x4933 (- 4 ?x2866)) 24003)) 1 (ite (<= 25203 (+ (+ ?x4933 (- 4 ?x2866)) 24003)) (- 1) 0))))
(let ((?x2408 (ite (>= ?x5522 (+ (select ?x400 4) ?x5053)) 4 (ite (>= ?x5522 (+ (select ?x400 3) ?x2774)) 3 ?x2373))))
(let ((?x1656 (ite (> 22803 (+ (+ ?x4933 (- 5 ?x2866)) 24003)) 1 (ite (<= 25203 (+ (+ ?x4933 (- 5 ?x2866)) 24003)) (- 1) 0))))
(let ((?x3181 (ite (> 22803 (+ (+ ?x4933 (- 6 ?x2866)) 24003)) 1 (ite (<= 25203 (+ (+ ?x4933 (- 6 ?x2866)) 24003)) (- 1) 0))))
(let ((?x5444 (ite (>= ?x5522 (+ (select ?x400 6) ?x3181)) 6 (ite (>= ?x5522 (+ (select ?x400 5) ?x1656)) 5 ?x2408))))
(let ((?x671 (ite (> 22803 (+ (+ ?x4933 (- 7 ?x2866)) 24003)) 1 (ite (<= 25203 (+ (+ ?x4933 (- 7 ?x2866)) 24003)) (- 1) 0))))
(let ((?x4346 (ite (> 22803 (+ (+ ?x4933 (- 8 ?x2866)) 24003)) 1 (ite (<= 25203 (+ (+ ?x4933 (- 8 ?x2866)) 24003)) (- 1) 0))))
(let ((?x1842 (ite (>= ?x5522 (+ (select ?x400 8) ?x4346)) 8 (ite (>= ?x5522 (+ (select ?x400 7) ?x671)) 7 ?x5444))))
(let ((?x4887 (ite (> 22803 (+ (+ ?x4933 (- 9 ?x2866)) 24003)) 1 (ite (<= 25203 (+ (+ ?x4933 (- 9 ?x2866)) 24003)) (- 1) 0))))
(let ((?x897 (ite (> 22803 (+ (+ ?x4933 (- 10 ?x2866)) 24003)) 1 (ite (<= 25203 (+ (+ ?x4933 (- 10 ?x2866)) 24003)) (- 1) 0))))
(let ((?x3243 (ite (>= ?x5522 (+ (select ?x400 10) ?x897)) 10 (ite (>= ?x5522 (+ (select ?x400 9) ?x4887)) 9 ?x1842))))
(let ((?x2268 (ite (> 22803 (+ (+ ?x4933 (- 11 ?x2866)) 24003)) 1 (ite (<= 25203 (+ (+ ?x4933 (- 11 ?x2866)) 24003)) (- 1) 0))))
(let ((?x4523 (ite (> 22803 (+ (+ ?x4933 (- 12 ?x2866)) 24003)) 1 (ite (<= 25203 (+ (+ ?x4933 (- 12 ?x2866)) 24003)) (- 1) 0))))
(let ((?x1982 (ite (>= ?x5522 (+ (select ?x400 12) ?x4523)) 12 (ite (>= ?x5522 (+ (select ?x400 11) ?x2268)) 11 ?x3243))))
(let ((?x4417 (ite (> 22803 (+ (+ ?x4933 (- 13 ?x2866)) 24003)) 1 (ite (<= 25203 (+ (+ ?x4933 (- 13 ?x2866)) 24003)) (- 1) 0))))
(let ((?x3532 (ite (> 22803 (+ (+ ?x4933 (- 14 ?x2866)) 24003)) 1 (ite (<= 25203 (+ (+ ?x4933 (- 14 ?x2866)) 24003)) (- 1) 0))))
(let ((?x1372 (ite (>= ?x5522 (+ (select ?x400 14) ?x3532)) 14 (ite (>= ?x5522 (+ (select ?x400 13) ?x4417)) 13 ?x1982))))
(let ((?x3678 (ite (> 22803 (+ (+ ?x4933 (- 15 ?x2866)) 24003)) 1 (ite (<= 25203 (+ (+ ?x4933 (- 15 ?x2866)) 24003)) (- 1) 0))))
(let ((?x2364 (ite (> 22803 (+ (+ ?x4933 (- 16 ?x2866)) 24003)) 1 (ite (<= 25203 (+ (+ ?x4933 (- 16 ?x2866)) 24003)) (- 1) 0))))
(let ((?x5038 (ite (>= ?x5522 (+ (select ?x400 16) ?x2364)) 16 (ite (>= ?x5522 (+ (select ?x400 15) ?x3678)) 15 ?x1372))))
(let ((?x5826 (ite (> 22803 (+ (+ ?x4933 (- 17 ?x2866)) 24003)) 1 (ite (<= 25203 (+ (+ ?x4933 (- 17 ?x2866)) 24003)) (- 1) 0))))
(let ((?x5576 (ite (> 22803 (+ (+ ?x4933 (- 18 ?x2866)) 24003)) 1 (ite (<= 25203 (+ (+ ?x4933 (- 18 ?x2866)) 24003)) (- 1) 0))))
(let ((?x4450 (ite (>= ?x5522 (+ (select ?x400 18) ?x5576)) 18 (ite (>= ?x5522 (+ (select ?x400 17) ?x5826)) 17 ?x5038))))
(let ((?x2783 (ite (> 22803 (+ (+ ?x4933 (- 19 ?x2866)) 24003)) 1 (ite (<= 25203 (+ (+ ?x4933 (- 19 ?x2866)) 24003)) (- 1) 0))))
(let ((?x4192 (ite (> 22803 (+ (+ ?x4933 (- 20 ?x2866)) 24003)) 1 (ite (<= 25203 (+ (+ ?x4933 (- 20 ?x2866)) 24003)) (- 1) 0))))
(let ((?x635 (ite (>= ?x5522 (+ (select ?x400 20) ?x4192)) 20 (ite (>= ?x5522 (+ (select ?x400 19) ?x2783)) 19 ?x4450))))
(let ((?x4986 (ite (> 22803 (+ (+ ?x4933 (- 21 ?x2866)) 24003)) 1 (ite (<= 25203 (+ (+ ?x4933 (- 21 ?x2866)) 24003)) (- 1) 0))))
(let ((?x5779 (ite (> 22803 (+ (+ ?x4933 (- 22 ?x2866)) 24003)) 1 (ite (<= 25203 (+ (+ ?x4933 (- 22 ?x2866)) 24003)) (- 1) 0))))
(let ((?x4272 (ite (>= ?x5522 (+ (select ?x400 22) ?x5779)) 22 (ite (>= ?x5522 (+ (select ?x400 21) ?x4986)) 21 ?x635))))
(let ((?x528 (ite (> 22803 (+ (+ ?x4933 (- 23 ?x2866)) 24003)) 1 (ite (<= 25203 (+ (+ ?x4933 (- 23 ?x2866)) 24003)) (- 1) 0))))
(let ((?x4570 (ite (> 22803 (+ (+ ?x4933 (- 24 ?x2866)) 24003)) 1 (ite (<= 25203 (+ (+ ?x4933 (- 24 ?x2866)) 24003)) (- 1) 0))))
(let ((?x2223 (ite (>= ?x5522 (+ (select ?x400 24) ?x4570)) 24 (ite (>= ?x5522 (+ (select ?x400 23) ?x528)) 23 ?x4272))))
(let ((?x3899 (ite (> 22803 (+ (+ ?x4933 (- 25 ?x2866)) 24003)) 1 (ite (<= 25203 (+ (+ ?x4933 (- 25 ?x2866)) 24003)) (- 1) 0))))
(let ((?x4406 (ite (> 22803 (+ (+ ?x4933 (- 26 ?x2866)) 24003)) 1 (ite (<= 25203 (+ (+ ?x4933 (- 26 ?x2866)) 24003)) (- 1) 0))))
(let ((?x1767 (ite (>= ?x5522 (+ (select ?x400 26) ?x4406)) 26 (ite (>= ?x5522 (+ (select ?x400 25) ?x3899)) 25 ?x2223))))
(let ((?x5474 (ite (> 22803 (+ (+ ?x4933 (- 27 ?x2866)) 24003)) 1 (ite (<= 25203 (+ (+ ?x4933 (- 27 ?x2866)) 24003)) (- 1) 0))))
(let ((?x3547 (ite (> 22803 (+ (+ ?x4933 (- 28 ?x2866)) 24003)) 1 (ite (<= 25203 (+ (+ ?x4933 (- 28 ?x2866)) 24003)) (- 1) 0))))
(let ((?x470 (ite (>= ?x5522 (+ (select ?x400 28) ?x3547)) 28 (ite (>= ?x5522 (+ (select ?x400 27) ?x5474)) 27 ?x1767))))
(let ((?x3323 (ite (> 22803 (+ (+ ?x4933 (- 29 ?x2866)) 24003)) 1 (ite (<= 25203 (+ (+ ?x4933 (- 29 ?x2866)) 24003)) (- 1) 0))))
(let ((?x3458 (ite (> 22803 (+ (+ ?x4933 (- 30 ?x2866)) 24003)) 1 (ite (<= 25203 (+ (+ ?x4933 (- 30 ?x2866)) 24003)) (- 1) 0))))
(let ((?x4505 (ite (>= ?x5522 (+ (select ?x400 30) ?x3458)) 30 (ite (>= ?x5522 (+ (select ?x400 29) ?x3323)) 29 ?x470))))
(let ((?x5176 (ite (> 22803 (+ (+ ?x4933 (- 31 ?x2866)) 24003)) 1 (ite (<= 25203 (+ (+ ?x4933 (- 31 ?x2866)) 24003)) (- 1) 0))))
(let ((?x5841 (ite (> 22803 (+ (+ ?x4933 (- 32 ?x2866)) 24003)) 1 (ite (<= 25203 (+ (+ ?x4933 (- 32 ?x2866)) 24003)) (- 1) 0))))
(let ((?x4605 (ite (>= ?x5522 (+ (select ?x400 32) ?x5841)) 32 (ite (>= ?x5522 (+ (select ?x400 31) ?x5176)) 31 ?x4505))))
(let ((?x1040 (ite (> 22803 (+ (+ ?x4933 (- 33 ?x2866)) 24003)) 1 (ite (<= 25203 (+ (+ ?x4933 (- 33 ?x2866)) 24003)) (- 1) 0))))
(let ((?x2715 (ite (> 22803 (+ (+ ?x4933 (- 34 ?x2866)) 24003)) 1 (ite (<= 25203 (+ (+ ?x4933 (- 34 ?x2866)) 24003)) (- 1) 0))))
(let ((?x1987 (ite (>= ?x5522 (+ (select ?x400 34) ?x2715)) 34 (ite (>= ?x5522 (+ (select ?x400 33) ?x1040)) 33 ?x4605))))
(let ((?x1920 (ite (> 22803 (+ (+ ?x4933 (- 35 ?x2866)) 24003)) 1 (ite (<= 25203 (+ (+ ?x4933 (- 35 ?x2866)) 24003)) (- 1) 0))))
(let ((?x5420 (ite (> 22803 (+ (+ ?x4933 (- 36 ?x2866)) 24003)) 1 (ite (<= 25203 (+ (+ ?x4933 (- 36 ?x2866)) 24003)) (- 1) 0))))
(let ((?x3511 (ite (>= ?x5522 (+ (select ?x400 36) ?x5420)) 36 (ite (>= ?x5522 (+ (select ?x400 35) ?x1920)) 35 ?x1987))))
(let ((?x2896 (ite (> 22803 (+ (+ ?x4933 (- 37 ?x2866)) 24003)) 1 (ite (<= 25203 (+ (+ ?x4933 (- 37 ?x2866)) 24003)) (- 1) 0))))
(let ((?x5731 (ite (> 22803 (+ (+ ?x4933 (- 38 ?x2866)) 24003)) 1 (ite (<= 25203 (+ (+ ?x4933 (- 38 ?x2866)) 24003)) (- 1) 0))))
(let ((?x4723 (ite (>= ?x5522 (+ (select ?x400 38) ?x5731)) 38 (ite (>= ?x5522 (+ (select ?x400 37) ?x2896)) 37 ?x3511))))
(let ((?x5660 (ite (> 22803 (+ (+ ?x4933 (- 39 ?x2866)) 24003)) 1 (ite (<= 25203 (+ (+ ?x4933 (- 39 ?x2866)) 24003)) (- 1) 0))))
(let ((?x5134 (ite (> 22803 (+ (+ ?x4933 (- 40 ?x2866)) 24003)) 1 (ite (<= 25203 (+ (+ ?x4933 (- 40 ?x2866)) 24003)) (- 1) 0))))
(let ((?x3885 (ite (>= ?x5522 (+ (select ?x400 40) ?x5134)) 40 (ite (>= ?x5522 (+ (select ?x400 39) ?x5660)) 39 ?x4723))))
(let ((?x2126 (ite (> 22803 (+ (+ ?x4933 (- 41 ?x2866)) 24003)) 1 (ite (<= 25203 (+ (+ ?x4933 (- 41 ?x2866)) 24003)) (- 1) 0))))
(let ((?x5347 (ite (> 22803 (+ (+ ?x4933 (- 42 ?x2866)) 24003)) 1 (ite (<= 25203 (+ (+ ?x4933 (- 42 ?x2866)) 24003)) (- 1) 0))))
(let ((?x4382 (ite (>= ?x5522 (+ (select ?x400 42) ?x5347)) 42 (ite (>= ?x5522 (+ (select ?x400 41) ?x2126)) 41 ?x3885))))
(let ((?x4004 (ite (> 22803 (+ (+ ?x4933 (- 43 ?x2866)) 24003)) 1 (ite (<= 25203 (+ (+ ?x4933 (- 43 ?x2866)) 24003)) (- 1) 0))))
(let ((?x4024 (ite (> 22803 (+ (+ ?x4933 (- 44 ?x2866)) 24003)) 1 (ite (<= 25203 (+ (+ ?x4933 (- 44 ?x2866)) 24003)) (- 1) 0))))
(let ((?x3326 (ite (>= ?x5522 (+ (select ?x400 44) ?x4024)) 44 (ite (>= ?x5522 (+ (select ?x400 43) ?x4004)) 43 ?x4382))))
(let ((?x2895 (ite (> 22803 (+ (+ ?x4933 (- 45 ?x2866)) 24003)) 1 (ite (<= 25203 (+ (+ ?x4933 (- 45 ?x2866)) 24003)) (- 1) 0))))
(let ((?x3674 (ite (> 22803 (+ (+ ?x4933 (- 46 ?x2866)) 24003)) 1 (ite (<= 25203 (+ (+ ?x4933 (- 46 ?x2866)) 24003)) (- 1) 0))))
(let ((?x4902 (ite (>= ?x5522 (+ (select ?x400 46) ?x3674)) 46 (ite (>= ?x5522 (+ (select ?x400 45) ?x2895)) 45 ?x3326))))
(let ((?x3035 (ite (> 22803 (+ (+ ?x4933 (- 47 ?x2866)) 24003)) 1 (ite (<= 25203 (+ (+ ?x4933 (- 47 ?x2866)) 24003)) (- 1) 0))))
(let ((?x4014 (ite (>= ?x5522 (+ (select ?x400 47) ?x3035)) 47 ?x4902)))
(let ((?x4275 (+ ?x4933 (- ?x4014 ?x2866))))
(let ((?x2466 (+ ?x4275 24003)))
(let ((?x5828 (+ (select ?x400 ?x4014) (ite (> 22803 ?x2466) 1 (ite (<= 25203 ?x2466) (- 1) 0)))))
(let ((?x751 (- ?x5522 ?x5828)))
(let ((?x4121 (ite (or (= 22802 ?x2466) (= 25202 ?x2466)) 28 (select ?x306 ?x4014))))
(let (($x3536 (= 0 (ite (= 1 (ite (>= ?x751 ?x4121) 1 0)) (- ?x751 ?x4121) ?x751))))
(let ((?x4263 (- (+ (* 2020 12) 3) 24003)))
(and (= (+ ?x4275 (ite (>= ?x751 ?x4121) 1 0)) ?x4263) $x3536)))))))))))))))))))))))))))))))))))))))))))))))))))))))))))))))))))))))))))))))))))))))))))))))))))))))))))))))))))))))))))))))))))))))))))))))))))))))
(check-sat)
